c Generated map
c Size: 8 * 8, weights in range: 1 to 10, walls: True, with ratio 0.05
c dim 1 of 9
c
p sp 64 101
c graph contains 64 nodes and 101 arcs
c
a 1 9 2
a 9 1 2
a 1 2 1
a 2 1 1
a 2 10 5
a 10 2 5
a 2 3 10
a 3 2 10
a 3 11 1
a 11 3 1
a 3 4 8
a 4 3 8
a 4 12 9
a 12 4 9
a 4 5 5
a 5 4 5
a 5 13 10
a 13 5 10
a 5 6 9
a 6 5 9
a 6 14 9
a 14 6 9
a 6 7 1
a 7 6 1
a 7 15 1
a 15 7 1
a 7 8 4
a 8 7 4
a 8 16 2
a 16 8 2
a 9 17 1
a 17 9 1
a 9 10 3
a 10 9 3
a 10 18 4
a 18 10 4
a 10 11 2
a 11 10 2
a 11 19 2
a 19 11 2
a 11 12 2
a 12 11 2
a 12 20 3
a 20 12 3
a 12 13 2
a 13 12 2
a 13 21 8
a 21 13 8
a 13 14 7
a 14 13 7
a 14 22 6
a 22 14 6
a 14 15 9
a 15 14 9
a 15 23 2
a 23 15 2
a 15 16 6
a 16 15 6
a 16 24 7
a 24 16 7
a 17 25 7
a 25 17 7
a 17 18 9
a 18 17 9
a 18 26 5
a 26 18 5
a 18 19 1
a 19 18 1
a 19 27 9
a 27 19 9
a 19 20 8
a 20 19 8
a 20 28 7
a 28 20 7
a 20 21 7
a 21 20 7
a 21 22 3
a 22 21 3
a 22 30 9
a 30 22 9
a 22 23 5
a 23 22 5
a 23 31 8
a 31 23 8
a 23 24 4
a 24 23 4
a 24 32 1
a 32 24 1
a 25 33 7
a 33 25 7
a 25 26 6
a 26 25 6
a 26 34 8
a 34 26 8
a 26 27 10
a 27 26 10
a 27 35 9
a 35 27 9
a 27 28 1
a 28 27 1
a 28 36 8
a 36 28 8
a 30 38 9
a 38 30 9
a 30 31 1
a 31 30 1
a 31 39 8
a 39 31 8
a 31 32 3
a 32 31 3
a 32 40 9
a 40 32 9
a 33 41 7
a 41 33 7
a 33 34 4
a 34 33 4
a 34 42 10
a 42 34 10
a 34 35 9
a 35 34 9
a 35 43 4
a 43 35 4
a 35 36 7
a 36 35 7
a 36 37 1
a 37 36 1
a 37 38 2
a 38 37 2
a 38 46 8
a 46 38 8
a 38 39 2
a 39 38 2
a 39 47 5
a 47 39 5
a 39 40 9
a 40 39 9
a 40 48 8
a 48 40 8
a 41 49 1
a 49 41 1
a 41 42 7
a 42 41 7
a 42 50 8
a 50 42 8
a 42 43 5
a 43 42 5
a 43 51 4
a 51 43 4
a 46 54 5
a 54 46 5
a 46 47 5
a 47 46 5
a 47 55 6
a 55 47 6
a 47 48 1
a 48 47 1
a 48 56 3
a 56 48 3
a 49 57 1
a 57 49 1
a 49 50 10
a 50 49 10
a 50 58 7
a 58 50 7
a 50 51 4
a 51 50 4
a 51 59 8
a 59 51 8
a 51 52 9
a 52 51 9
a 52 60 8
a 60 52 8
a 52 53 3
a 53 52 3
a 53 61 3
a 61 53 3
a 53 54 2
a 54 53 2
a 54 62 9
a 62 54 9
a 54 55 9
a 55 54 9
a 55 63 7
a 63 55 7
a 55 56 4
a 56 55 4
a 56 64 5
a 64 56 5
a 57 58 7
a 58 57 7
a 58 59 1
a 59 58 1
a 59 60 7
a 60 59 7
a 60 61 2
a 61 60 2
a 61 62 10
a 62 61 10
a 62 63 7
a 63 62 7
a 63 64 4
a 64 63 4
